56 56
3 24
15 16
31 3
38 22
43 10
39 26
19 7
34 9
30 5
45 13
33 14
14 28
41 25
18 21
54 26
11 12
8 2
48 27
28 10
25 4
4 24
17 28
22 19
52 16
12 18
23 8
47 8
42 21
50 1
35 23
40 15
27 19
36 11
13 20
26 4
24 6
32 22
6 7
5 18
20 13
21 6
29 14
55 17
44 17
7 12
16 20
46 3
53 5
2 25
37 11
1 27
10 2
9 9
51 23
49 15
56 1
